c User generated cnf file
p cnf 14 51
-13 7 14 0 
-10 9 10 0 
-3 12 8 0 
-3 6 13 0 
3 -6 4 0 
-9 3 8 0 
-12 4 14 0 
-2 3 7 0 
10 12 -6 0 
1 -4 6 0 
-10 14 13 0 
5 -11 13 0 
-11 2 12 0 
-13 7 3 0 
11 4 -13 0 
-12 14 14 0 
9 -3 3 0 
10 -9 9 0 
-8 13 6 0 
-10 14 3 0 
3 -3 14 0 
12 -12 12 0 
2 -2 4 0 
5 -12 7 0 
9 -6 11 0 
8 -4 2 0 
5 -2 1 0 
-12 12 1 0 
3 3 -14 0 
2 10 -8 0 
-10 2 13 0 
5 -4 4 0 
1 2 -6 0 
4 12 -10 0 
9 -9 6 0 
-13 9 2 0 
6 8 -11 0 
10 -7 13 0 
5 5 -8 0 
12 -13 7 0 
-1 12 14 0 
-11 11 1 0 
-14 2 8 0 
5 11 -12 0 
-2 1 13 0 
11 -8 3 0 
7 9 -4 0 
7 -10 6 0 
10 6 -8 0 
8 9 -8 0 
-1 6 4 0 
